c Random Network
p max    10      20
n         1  s
n        10  t
a       1       4      33
a       4       6      13
a       2       4      48
a       8       2       1
a       4       1      27
a       2       6      20
a       5       2      18
a       1       2      14
a       2       1      47
a       2       5      23
a       6       9       5
a       9      10      15
a       7       9      13
a       3      10      41
a       9       4      44
a       2       3      17
a       7       6      39
a       9       8      39
a       5       6      46
a       3       1       1
